%SETS
JOBS     = 1..2;
MACHINES = 1..6;
SPEED    = 1;

time               = array3d(JOBS,MACHINES,1..SPEED,[49, 90, 96, 44, 81, 57, 61, 93, 16, 17, 11, 84]);
energy             = array3d(JOBS,MACHINES,1..SPEED,[61, 40, 38, 64, 44, 56, 54, 39, 85, 84, 89, 43]);
precedence         = array2d(JOBS,MACHINES,[5,1,4,3,0,2,0,1,2,5,3,4]);